NAME : LR1_6_10
TYPE : PDPTW
DIMENSION : 150
EDGE_WEIGHT_TYPE : EXACT_2D
NODE_COORD_SECTION
1 1 0
2 150 0
3 0 0
4 -25 171
5 0 2
6 77 233
7 3 174
8 1090 10
9 166 123
10 10 0
11 293 -2
12 189 0
13 -18 564
14 0 7
15 630 739
16 8 247
17 897 10
18 152 29
19 10 365
20 216 25
21 0 19
22 20 964
23 611 12
24 525 689
25 13 148
26 57 10
27 291 148
28 10 0
29 241 -9
30 191 0
31 25 729
32 109 17
33 778 866
34 18 266
35 402 10
36 99 226
37 10 10
38 116 22
39 0 62
40 -27 337
41 0 22
42 1000 1147
43 23 17
44 633 0
45 96 86
46 10 0
47 228 2
48 0 12
49 -19 166
50 0 27
51 166 268
52 28 16
53 305 10
54 67 175
55 10 176
56 286 17
57 0 307
58 33 88
59 375 32
60 614 723
61 33 26
62 947 0
63 37 14
64 10 0
65 11 -1
66 104 0
67 24 761
68 594 37
69 122 232
70 38 154
71 162 10
72 75 191
73 10 0
74 62 -13
75 58 0
76 17 444
77 592 42
78 282 443
79 43 99
80 309 10
81 6 168
82 10 0
83 211 -29
84 252 0
85 -27 993
86 0 47
87 662 754
88 48 268
89 916 10
90 29 8
91 10 34
92 89 -10
93 113 0
94 -6 354
95 0 52
96 425 587
97 53 282
98 930 10
99 90 44
100 10 584
101 7 -38
102 381 0
103 -23 784
104 0 57
105 156 249
106 58 207
107 249 10
108 289 143
109 10 0
110 194 7
111 0 153
112 29 746
113 623 62
114 522 611
115 63 207
116 571 10
117 136 50
118 10 0
119 221 29
120 0 355
121 -18 748
122 0 67
123 395 554
124 68 206
125 818 10
126 227 5
127 10 481
128 287 15
129 0 606
130 23 17
131 398 72
132 693 790
133 73 152
134 166 10
135 225 192
136 10 389
137 104 21
138 0 423
139 -22 744
140 0 77
141 239 321
142 78 106
143 255 10
144 73 81
145 10 24
146 232 11
147 0 163
148 -26 531
149 0 82
150 424 575
PICKUP_AND_DELIVERY_SECTION
1 0 0 0 0 0 0
2 0 0 0 0 1206 0
3 0 0 0 0 0 71
4 0 0 0 0 10 10
5 0 0 0 0 80 80
6 0 0 0 0 0 0
7 0 0 0 0 -35 -35
8 0 0 0 0 0 0
9 0 0 0 0 31 31
10 0 0 0 0 5 5
11 0 0 0 0 633 633
12 0 0 0 0 140 140
13 0 0 0 0 10 10
14 0 0 0 0 203 203
15 0 0 0 0 178 178
16 0 0 0 0 21 21
17 0 0 0 0 442 0
18 0 0 0 0 873 873
19 0 0 0 0 10 0
20 0 0 0 0 269 269
21 0 0 0 0 107 107
22 0 0 0 0 0 0
23 0 0 0 0 270 270
24 0 0 0 0 25 25
25 0 0 0 0 24 24
26 0 0 0 0 234 0
27 0 0 0 0 574 574
28 0 0 0 0 15 15
29 0 0 0 0 820 820
30 0 0 0 0 162 162
31 0 0 0 0 10 10
32 0 0 0 0 254 254
33 0 0 0 0 206 206
34 0 0 0 0 -27 -27
35 0 0 0 0 0 0
36 0 0 0 0 279 279
37 0 0 0 0 20 0
38 0 0 0 0 341 341
39 0 0 0 0 110 110
40 0 0 0 0 10 10
41 0 0 0 0 107 107
42 0 0 0 0 126 126
43 0 0 0 0 11 0
44 0 0 0 0 601 0
45 0 0 0 0 83 83
46 0 0 0 0 25 25
47 0 0 0 0 457 457
48 0 0 0 0 100 100
49 0 0 0 0 10 10
50 0 0 0 0 277 277
51 0 0 0 0 0 0
52 0 0 0 0 17 17
53 0 0 0 0 524 0
54 0 0 0 0 242 242
55 0 0 0 0 30 0
56 0 0 0 0 469 469
57 0 0 0 0 176 176
58 0 0 0 0 10 10
59 0 0 0 0 14 14
60 0 0 0 0 344 344
61 0 0 0 0 16 16
62 0 0 0 0 603 0
63 0 0 0 0 188 188
64 0 0 0 0 35 35
65 0 0 0 0 577 577
66 0 0 0 0 74 74
67 0 0 0 0 10 10
68 0 0 0 0 53 53
69 0 0 0 0 0 0
70 0 0 0 0 21 21
71 0 0 0 0 139 0
72 0 0 0 0 85 85
73 0 0 0 0 40 40
74 0 0 0 0 872 872
75 0 0 0 0 209 209
76 0 0 0 0 10 10
77 0 0 0 0 149 149
78 0 0 0 0 263 263
79 0 0 0 0 -31 -31
80 0 0 0 0 0 0
81 0 0 0 0 691 691
82 0 0 0 0 45 45
83 0 0 0 0 290 290
84 0 0 0 0 254 254
85 0 0 0 0 10 10
86 0 0 0 0 175 175
87 0 0 0 0 0 0
88 0 0 0 0 -22 -22
89 0 0 0 0 0 0
90 0 0 0 0 723 723
91 0 0 0 0 50 0
92 0 0 0 0 872 872
93 0 0 0 0 9 9
94 0 0 0 0 10 10
95 0 0 0 0 294 294
96 0 0 0 0 431 431
97 0 0 0 0 -3 -3
98 0 0 0 0 0 0
99 0 0 0 0 953 953
100 0 0 0 0 55 0
101 0 0 0 0 505 505
102 0 0 0 0 176 176
103 0 0 0 0 10 10
104 0 0 0 0 243 243
105 0 0 0 0 0 0
106 0 0 0 0 13 13
107 0 0 0 0 40 0
108 0 0 0 0 139 139
109 0 0 0 0 60 60
110 0 0 0 0 166 166
111 0 0 0 0 295 295
112 0 0 0 0 0 0
113 0 0 0 0 62 62
114 0 0 0 0 20 20
115 0 0 0 0 11 11
116 0 0 0 0 360 0
117 0 0 0 0 183 183
118 0 0 0 0 65 65
119 0 0 0 0 364 364
120 0 0 0 0 208 208
121 0 0 0 0 10 10
122 0 0 0 0 29 29
123 0 0 0 0 438 438
124 0 0 0 0 -25 -25
125 0 0 0 0 0 0
126 0 0 0 0 308 308
127 0 0 0 0 70 0
128 0 0 0 0 1033 1033
129 0 0 0 0 151 151
130 0 0 0 0 10 10
131 0 0 0 0 100 100
132 0 0 0 0 0 0
133 0 0 0 0 10 10
134 0 0 0 0 499 0
135 0 0 0 0 479 479
136 0 0 0 0 75 0
137 0 0 0 0 143 143
138 0 0 0 0 296 296
139 0 0 0 0 10 10
140 0 0 0 0 170 170
141 0 0 0 0 0 0
142 0 0 0 0 -12 -12
143 0 0 0 0 0 0
144 0 0 0 0 508 508
145 0 0 0 0 80 0
146 0 0 0 0 990 990
147 0 0 0 0 112 112
148 0 0 0 0 10 10
149 0 0 0 0 251 251
150 0 0 0 0 518 518
DEPOT_SECTION
1 
-1
EOF
